<number of tasks>
50

<cycle time>
1000

<order strength>
0.199


<task times>
1 190
2 39
3 46
4 234
5 54
6 115
7 208
8 57
9 212
10 60
11 157
12 145
13 101
14 240
15 181
16 114
17 311
18 82
19 69
20 161
21 135
22 400
23 83
24 197
25 129
26 46
27 279
28 56
29 59
30 29
31 160
32 92
33 302
34 154
35 119
36 130
37 144
38 183
39 119
40 69
41 146
42 77
43 146
44 35
45 185
46 178
47 49
48 199
49 164
50 137

<precedence relations>
1,9
2,10
3,8
3,15
3,24
3,41
3,44
4,11
4,35
5,12
5,14
6,13
6,14
6,15
6,32
8,16
9,18
10,17
11,19
12,20
13,23
14,22
14,23
14,24
15,21
15,28
15,50
16,27
17,25
18,26
19,28
20,27
21,47
22,28
23,29
23,41
24,50
25,31
26,30
27,32
27,42
30,33
31,34
31,35
31,36
31,37
32,43
33,38
34,39
34,42
35,40
35,44
36,42
36,43
37,41
38,47
39,45
40,46
41,50
42,50
43,48
44,49

<end>
